networks/zoo_74_800/zoo_74_800-lower.txt
Number of groups: 38
Flow 22: {1 3 0} {3 31 0} {31 32 0} {32 33 0} {33 70 0} 
Flow 37: {2 3 0} {3 21 0} {21 27 0} {27 24 0} {24 61 0} 
Flow 48: {3 4 0} {4 41 0} 
Flow 59: {21 16 0} {16 17 0} {17 54 0} 
Flow 70: {5 28 0} {28 65 0} 
Flow 80: {4 3 0} {3 40 0} 
Flow 155: {7 29 0} {29 25 0} {25 26 0} {26 63 0} 
Flow 170: {7 8 0} {8 45 0} 
Flow 197: {36 37 0} {37 74 0} 
Flow 206: {10 23 0} {23 22 0} {22 59 0} 
Flow 227: {11 25 0} {25 29 0} {29 66 0} 
Flow 238: {12 21 0} {21 13 0} {13 50 0} 
Flow 250: {27 64 0} 
Flow 259: {21 3 0} {3 1 0} {1 38 0} 
Flow 259: {13 21 0} Flow 290: {14 21 0} {21 58 0} 
Flow 303: {21 14 0} {14 51 0} 
Flow 303: {15 21 0} Flow 311: {15 16 0} {16 22 0} {22 23 0} {23 60 0} 
Flow 334: {17 16 0} {16 15 0} {15 52 0} 
Flow 360: {18 19 0} {19 25 0} {25 62 0} 
Flow 410: {20 21 0} {21 31 0} {31 30 0} {30 67 0} 
Flow 451: {16 9 0} {9 6 0} {6 43 0} 
Flow 454: {21 12 0} {12 49 0} 
Flow 454: {22 16 0} {16 21 0} Flow 487: {23 10 0} {10 9 0} {9 35 0} {35 31 0} {31 68 0} 
Flow 502: {25 19 0} {19 18 0} {18 55 0} 
Flow 502: {27 21 0} {21 25 0} {24 27 0} Flow 523: {9 10 0} {10 47 0} 
Flow 524: {25 11 0} {11 48 0} 
Flow 562: {26 25 0} {25 21 0} {21 20 0} {20 57 0} 
Flow 584: {28 5 0} {5 6 0} {6 9 0} {9 21 0} {21 15 0} 
Flow 605: {19 56 0} 
Flow 619: {29 31 0} {31 35 0} {35 34 0} {34 71 0} 
Flow 624: {6 5 0} {5 42 0} 
Flow 626: {31 29 0} {29 7 0} {7 44 0} 
Flow 626: {30 31 0} Flow 668: {32 69 0} 
Flow 696: {33 32 0} {32 31 0} {31 3 0} {3 2 0} {2 39 0} 
Flow 701: {31 21 0} {21 9 0} {9 46 0} 
Flow 740: {34 35 0} {35 72 0} 
Flow 773: {35 36 0} {36 73 0} 
Flow 796: {37 36 0} {36 35 0} {35 9 0} {9 16 0} {16 53 0} 
Time taken running everything: 3 seconds
