networks/zoo_74_800/zoo_74_800-lower.sol
<?xml version = "1.0" encoding="UTF-8" standalone="yes"?>
<CPLEXSolution version="1.2">
 <header
   problemName="networks/zoo_74_800/zoo_74_800-lower.lp"
   solutionName="incumbent"
   solutionIndex="-1"
   objectiveValue="37"
   solutionTypeValue="3"
   solutionTypeString="primal"
   solutionStatusValue="101"
   solutionStatusString="integer optimal solution"
   solutionMethodString="mip"
   primalFeasible="1"
   dualFeasible="1"
   MIPNodes="0"
   MIPIterations="0"
   writeLevel="3"/>
 <quality
   epInt="1.0000000000000001e-05"
   epRHS="9.9999999999999995e-07"
   maxIntInfeas="0"
   maxPrimalInfeas="0"
   maxX="1"
   maxSlack="1"/>
 <variables>
  <variable name="Y(1,2)" index="1" value="1"/>
  <variable name="Y(2,3)" index="76" value="1"/>
  <variable name="Y(3,5)" index="152" value="1"/>
  <variable name="Y(4,6)" index="227" value="1"/>
  <variable name="Y(5,7)" index="302" value="1"/>
  <variable name="Y(6,9)" index="378" value="1"/>
  <variable name="Y(7,12)" index="455" value="1"/>
  <variable name="Y(8,13)" index="530" value="1"/>
  <variable name="Y(9,15)" index="606" value="1"/>
  <variable name="Y(10,16)" index="681" value="1"/>
  <variable name="Y(11,18)" index="757" value="1"/>
  <variable name="Y(12,21)" index="834" value="1"/>
  <variable name="Y(13,22)" index="909" value="1"/>
  <variable name="Y(14,23)" index="984" value="1"/>
  <variable name="Y(15,24)" index="1059" value="1"/>
  <variable name="Y(16,25)" index="1134" value="1"/>
  <variable name="Y(17,26)" index="1209" value="1"/>
  <variable name="Y(18,27)" index="1284" value="1"/>
  <variable name="Y(19,29)" index="1360" value="1"/>
  <variable name="Y(20,30)" index="1435" value="1"/>
  <variable name="Y(21,31)" index="1510" value="1"/>
  <variable name="Y(22,33)" index="1586" value="1"/>
  <variable name="Y(23,35)" index="1662" value="1"/>
  <variable name="Y(46,1)" index="3330" value="1"/>
  <variable name="Y(48,4)" index="3481" value="1"/>
  <variable name="Y(53,11)" index="3858" value="1"/>
  <variable name="Y(56,14)" index="4083" value="1"/>
  <variable name="Y(59,17)" index="4308" value="1"/>
  <variable name="Y(61,19)" index="4458" value="1"/>
  <variable name="Y(62,20)" index="4533" value="1"/>
  <variable name="Y(70,28)" index="5133" value="1"/>
  <variable name="Y(74,32)" index="5433" value="1"/>
  <variable name="Y(76,34)" index="5583" value="1"/>
  <variable name="Y(78,36)" index="5733" value="1"/>
  <variable name="Y(79,37)" index="5808" value="1"/>
  <variable name="Y(170,8)" index="12513" value="1"/>
  <variable name="Y(422,10)" index="31163" value="1"/>
  <variable name="X(1,3,1)" index="59200" value="1"/>
  <variable name="X(1,38,46)" index="60045" value="1"/>
  <variable name="X(2,3,24)" index="60823" value="1"/>
  <variable name="X(2,39,1)" index="61600" value="1"/>
  <variable name="X(3,1,46)" index="62445" value="1"/>
  <variable name="X(3,2,1)" index="63200" value="1"/>
  <variable name="X(3,4,48)" index="64047" value="1"/>
  <variable name="X(3,21,3)" index="64802" value="1"/>
  <variable name="X(3,31,5)" index="65604" value="1"/>
  <variable name="X(3,40,2)" index="66401" value="1"/>
  <variable name="X(4,3,80)" index="67279" value="1"/>
  <variable name="X(4,41,48)" index="68047" value="1"/>
  <variable name="X(5,6,96)" index="68895" value="1"/>
  <variable name="X(5,28,70)" index="69669" value="1"/>
  <variable name="X(5,42,3)" index="70402" value="1"/>
  <variable name="X(6,5,3)" index="71202" value="1"/>
  <variable name="X(6,9,96)" index="72095" value="1"/>
  <variable name="X(6,43,4)" index="72803" value="1"/>
  <variable name="X(7,8,170)" index="73769" value="1"/>
  <variable name="X(7,29,139)" index="74538" value="1"/>
  <variable name="X(7,44,5)" index="75204" value="1"/>
  <variable name="X(8,45,170)" index="76169" value="1"/>
  <variable name="X(9,6,3)" index="76802" value="1"/>
  <variable name="X(9,10,14)" index="77613" value="1"/>
  <variable name="X(9,16,104)" index="78503" value="1"/>
  <variable name="X(9,21,96)" index="79295" value="1"/>
  <variable name="X(9,35,99)" index="80098" value="1"/>
  <variable name="X(9,46,6)" index="80805" value="1"/>
  <variable name="X(10,9,198)" index="81797" value="1"/>
  <variable name="X(10,23,14)" index="82413" value="1"/>
  <variable name="X(10,47,422)" index="83621" value="1"/>
  <variable name="X(11,25,211)" index="84210" value="1"/>
  <variable name="X(11,48,53)" index="84852" value="1"/>
  <variable name="X(12,21,231)" index="85830" value="1"/>
  <variable name="X(12,49,7)" index="86406" value="1"/>
  <variable name="X(13,21,259)" index="87458" value="1"/>
  <variable name="X(13,50,8)" index="88007" value="1"/>
  <variable name="X(14,21,289)" index="89088" value="1"/>
  <variable name="X(14,51,56)" index="89655" value="1"/>
  <variable name="X(15,16,304)" index="90703" value="1"/>
  <variable name="X(15,21,291)" index="91490" value="1"/>
  <variable name="X(15,52,9)" index="92008" value="1"/>
  <variable name="X(16,9,328)" index="93127" value="1"/>
  <variable name="X(16,15,334)" index="93933" value="1"/>
  <variable name="X(16,17,59)" index="94458" value="1"/>
  <variable name="X(16,21,326)" index="95525" value="1"/>
  <variable name="X(16,22,13)" index="96012" value="1"/>
  <variable name="X(16,53,10)" index="96809" value="1"/>
  <variable name="X(17,16,327)" index="97926" value="1"/>
  <variable name="X(17,54,59)" index="98458" value="1"/>
  <variable name="X(18,19,346)" index="99545" value="1"/>
  <variable name="X(18,55,11)" index="100010" value="1"/>
  <variable name="X(19,18,11)" index="100810" value="1"/>
  <variable name="X(19,25,346)" index="101945" value="1"/>
  <variable name="X(19,56,61)" index="102460" value="1"/>
  <variable name="X(20,21,391)" index="103590" value="1"/>
  <variable name="X(20,57,62)" index="104061" value="1"/>
  <variable name="X(21,3,96)" index="104895" value="1"/>
  <variable name="X(21,9,3)" index="105602" value="1"/>
  <variable name="X(21,12,7)" index="106406" value="1"/>
  <variable name="X(21,13,8)" index="107207" value="1"/>
  <variable name="X(21,14,56)" index="108055" value="1"/>
  <variable name="X(21,15,9)" index="108808" value="1"/>
  <variable name="X(21,16,10)" index="109609" value="1"/>
  <variable name="X(21,20,62)" index="110461" value="1"/>
  <variable name="X(21,25,11)" index="111210" value="1"/>
  <variable name="X(21,27,15)" index="112014" value="1"/>
  <variable name="X(21,31,228)" index="113027" value="1"/>
  <variable name="X(21,58,12)" index="113611" value="1"/>
  <variable name="X(22,16,449)" index="114848" value="1"/>
  <variable name="X(22,23,311)" index="115510" value="1"/>
  <variable name="X(22,59,13)" index="116012" value="1"/>
  <variable name="X(23,10,464)" index="117263" value="1"/>
  <variable name="X(23,22,206)" index="117805" value="1"/>
  <variable name="X(23,60,14)" index="118413" value="1"/>
  <variable name="X(24,27,492)" index="119691" value="1"/>
  <variable name="X(24,61,15)" index="120014" value="1"/>
  <variable name="X(25,11,53)" index="120852" value="1"/>
  <variable name="X(25,19,11)" index="121610" value="1"/>
  <variable name="X(25,21,141)" index="122540" value="1"/>
  <variable name="X(25,26,17)" index="123216" value="1"/>
  <variable name="X(25,29,214)" index="124213" value="1"/>
  <variable name="X(25,62,16)" index="124815" value="1"/>
  <variable name="X(26,25,550)" index="126149" value="1"/>
  <variable name="X(26,63,17)" index="126416" value="1"/>
  <variable name="X(27,21,492)" index="127691" value="1"/>
  <variable name="X(27,24,15)" index="128014" value="1"/>
  <variable name="X(27,64,18)" index="128817" value="1"/>
  <variable name="X(28,5,583)" index="130182" value="1"/>
  <variable name="X(28,65,70)" index="130469" value="1"/>
  <variable name="X(29,7,5)" index="131204" value="1"/>
  <variable name="X(29,25,141)" index="132140" value="1"/>
  <variable name="X(29,31,139)" index="132938" value="1"/>
  <variable name="X(29,66,19)" index="133618" value="1"/>
  <variable name="X(30,31,623)" index="135022" value="1"/>
  <variable name="X(30,67,20)" index="135219" value="1"/>
  <variable name="X(31,3,139)" index="136138" value="1"/>
  <variable name="X(31,21,624)" index="137423" value="1"/>
  <variable name="X(31,29,5)" index="137604" value="1"/>
  <variable name="X(31,30,20)" index="138419" value="1"/>
  <variable name="X(31,32,22)" index="139221" value="1"/>
  <variable name="X(31,35,23)" index="140022" value="1"/>
  <variable name="X(31,68,21)" index="140820" value="1"/>
  <variable name="X(32,31,674)" index="142273" value="1"/>
  <variable name="X(32,33,22)" index="142421" value="1"/>
  <variable name="X(32,69,74)" index="143273" value="1"/>
  <variable name="X(33,32,696)" index="144695" value="1"/>
  <variable name="X(33,70,22)" index="144821" value="1"/>
  <variable name="X(34,35,718)" index="146317" value="1"/>
  <variable name="X(34,71,76)" index="146475" value="1"/>
  <variable name="X(35,9,720)" index="147919" value="1"/>
  <variable name="X(35,31,99)" index="148098" value="1"/>
  <variable name="X(35,34,76)" index="148875" value="1"/>
  <variable name="X(35,36,78)" index="149677" value="1"/>
  <variable name="X(35,72,23)" index="150422" value="1"/>
  <variable name="X(36,35,775)" index="151974" value="1"/>
  <variable name="X(36,37,79)" index="152078" value="1"/>
  <variable name="X(36,73,78)" index="152877" value="1"/>
  <variable name="X(37,36,795)" index="154394" value="1"/>
  <variable name="X(37,74,79)" index="154478" value="1"/>
 </variables>
</CPLEXSolution>
